CLP/out/Inst03.txt
[[0, 4, 15, 11, 10, 6, 2, 19, 1, 12, 9, 7, 8, 5, 13, 3, 0],[0, 49, 64, 14, 38, 26, 27, 52, 18, 48, 0],[0, 93, 110, 41, 117, 16, 104, 81, 107, 78, 91, 0],[0, 46, 32, 130, 33, 29, 42, 31, 139, 24, 35, 34, 25, 0],[0, 66, 74, 43, 85, 39, 59, 50, 40, 80, 53, 44, 61, 0],[0, 118, 142, 62, 128, 94, 124, 119, 123, 82, 90, 127, 111, 0],[0, 87, 67, 28, 134, 23, 136, 21, 100, 56, 20, 88, 65, 22, 137, 17, 75, 0],[0, 47, 105, 37, 141, 36, 115, 58, 98, 71, 51, 102, 68, 57, 103, 63, 96, 77, 84, 86, 79, 45, 0],[0, 95, 133, 73, 112, 113, 131, 89, 114, 132, 129, 54, 120, 60, 140, 83, 72, 125, 108, 109, 76, 116, 55, 126, 69, 121, 101, 106, 97, 143, 30, 138, 70, 135, 99, 122, 92, 0],[],[],[],[],[],[],[],[],[],[],[]]

Total distance = 13278
